FPU set for double precision

Propagation version: TRIE_V1

============================[ Problem Statistics ]=============================
|                                                                             |
|  Number of variables:          2197                                         |
|  Number of clauses:           60804                                         |
|  Parse time:                   0.02 s                                       |
|  Simplification time:          0.01 s             